c ren 1 -> 1
c ren 2 -> 2
c ren 5 -> 3
c ren 6 -> 4
c ren 7 -> 5
c ren 8 -> 6
c ren 10 -> 7
c ren 11 -> 8
c ren 12 -> 9
c ren 13 -> 10
c ren 14 -> 11
c ren 17 -> 12
c ren 18 -> 13
c ren 19 -> 14
c ren 20 -> 15
c ren 22 -> 16
c ren 23 -> 17
c ren 24 -> 18
c ren 35 -> 19
c ren 39 -> 20
c ren 46 -> 21
p cnf 21 42
a 1 2 3 4 5 6 7 8 9 10 11 12 13 14 15 0
d 16 14 15 0
d 17 12 13 0
d 18 10 11 0
e 19 20 21 0
1 2 -3 -7 -17 19 -20 -21 0
1 2 3 4 5 6 7 8 9 10 -11 18 19 -20 -21 0
1 2 -4 8 10 11 -17 19 -20 -21 0
3 4 -5 -12 13 -19 0
1 2 -3 8 -17 -18 19 -20 -21 0
-3 -6 12 13 -19 0
3 4 5 6 7 -8 -16 19 -20 -21 0
1 2 -4 -7 -17 19 -20 -21 0
1 2 -4 8 -9 -17 19 -20 -21 0
3 4 -6 -12 13 -19 0
8 9 -14 20 0
3 4 5 6 7 -9 -16 19 -20 -21 0
-9 14 20 0
-4 -5 12 13 -19 0
-4 -6 12 13 -19 0
1 2 -10 -15 21 0
-4 5 6 12 -13 -19 0
1 2 3 4 5 6 7 8 9 -10 16 19 -20 -21 0
-8 14 20 0
-2 3 4 5 6 7 -16 19 -20 -21 0
-1 15 21 0
1 2 -5 8 10 11 -17 19 -20 -21 0
1 2 3 4 5 6 -7 17 19 -20 -21 0
-2 15 21 0
-3 5 6 12 -13 -19 0
1 2 -6 8 -17 -18 19 -20 -21 0
1 2 -6 -7 -17 19 -20 -21 0
3 4 5 6 7 10 -16 19 -20 -21 0
1 2 -5 8 -9 -17 19 -20 -21 0
-1 3 4 5 6 7 -16 19 -20 -21 0
1 2 -3 8 10 11 -17 19 -20 -21 0
1 2 -3 8 -9 -17 19 -20 -21 0
3 4 5 6 -12 -13 -19 0
1 2 -6 8 10 11 -17 19 -20 -21 0
-3 -5 12 13 -19 0
10 15 21 0
1 2 3 4 5 6 8 -9 17 19 -20 -21 0
1 2 -5 -7 -17 19 -20 -21 0
1 2 -6 8 -9 -17 19 -20 -21 0
1 2 -4 8 -17 -18 19 -20 -21 0
1 2 3 4 5 6 8 10 17 19 -20 -21 0
1 2 -5 8 -17 -18 19 -20 -21 0
